tsp_instances/TSP50/instance30.tsp
NODE_COORD_SECTION
0 49 132
1 83 108
2 143 47
3 156 19
4 165 187
5 135 104
6 169 99
7 145 45
8 25 136
9 18 71
10 31 88
11 107 174
12 185 95
13 13 6
14 58 187
15 68 154
16 87 22
17 146 155
18 2 158
19 48 79
20 194 186
21 128 15
22 113 137
23 145 27
24 183 108
25 55 107
26 191 32
27 153 105
28 198 174
29 160 19
30 197 1
31 158 88
32 119 18
33 93 33
34 14 9
35 193 19
36 158 24
37 171 186
38 90 2
39 116 14
40 19 139
41 109 75
42 117 165
43 34 108
44 134 127
45 111 123
46 141 57
47 60 160
48 69 177
49 179 10
