tsp_instances/TSP50/instance30.opt.tour
TOUR_SECTION
1
9
41
19
15
49
48
16
12
43
18
5
38
21
29
25
13
7
32
28
6
45
23
46
2
42
47
3
8
27
36
31
50
30
4
37
24
22
33
40
34
17
39
14
35
10
20
11
44
26
-1